p cnf 7230 16
-532 -2542 -2738 0
-530 -2540 -2736 0
532 -2739 0
530 -2737 0
2740 2741 0
2024 -2741 0
-2024 -2740 0
2738 2739 0
2736 2737 0
2734 2735 0
2022 -2735 0
-2022 -2734 0
2542 -2739 0
2540 -2737 0
2514 -2743 0
534 -2743 0
